184 43 7 48 196 111 70 135 34 1 
102 152 169 20 10 25 73 126 39 67 
180 16 101 108 45 50 13 2 
149 103 49 150 171 90 116 193 148 
197 26 42 89 189 41 82 76 120 
15 156 68 151 160 19 30 64 
4 132 78 58 191 139 22 91 178 185 36 
40 3 27 167 131 51 55 60 141 
63 181 35 164 77 5 159 62 134 17 
143 12 128 117 38 32 56 53 80 
163 153 47 195 129 133 98 198 106 
6 182 72 119 166 165 85 107 
61 125 65 94 168 74 
9 190 18 200 186 154 
162 170 179 145 95 81 96 
140 69 113 86 109 52 79 146 175 97 
24 161 57 147 142 187 44 110 66 174 157 
100 37 173 29 177 114 23 194 71 137 123 11 
127 21 92 112 192 33 93 83 
28 124 136 130 138 172 46 122 158 75 
14 183 54 59 188 144 87 121 115 8 
155 88 105 176 84 199 118 
31 99 
104 

